c This input sequence yields 48 propagations
p cnf 50 130
40 31 38 0
30 38 40 31 0
40 15 21 -22 0
-30 47 -44 0
-44 -39 11 27 28 0
50 5 1 28 -13 0
40 7 -19 0
-41 31 38 23 0
-41 15 21 -30 0
-41 1 -13 34 0
-41 25 -6 -7 0
-41 3 7 -8 -9 0
-41 -28 -30 40 0
-41 -8 -13 0
-48 -41 50 0
-48 30 21 -22 0
-42 5 1 2 0
-42 19 20 -22 0
-42 11 22 30 0
-48 25 26 0
-42 1 30 31 22 0
1 2 0
2 20 0
3 9 0
4 9 0
5 -1 0
6 19 0
7 -1 0
1 13 14 15 16 17 18 0
19 15 14 7 8 9 1 0
11 12 13 8 14 6 9 0
1 3 5 7 9 11 13 0
9 11 13 15 17 19 0
15 17 19 2 4 6 8 0
1 3 5 7 9 2 4 6 0
-7 11 -13 -17 1 2 3 0
16 17 18 19 -7 -2 -9 0
-5 11 -6 -3 1 17 18 0
12 11 -10 9 -7 -8 2 0
-41 0
-42 0
43 0
-44 0
45 0
46 0
47 0
-48 0
49 0
50 0
-8 19 2 3 0
-9 10 0
-10 0
-11 13 15 0
-12 13 0
-13 0
-14 0
-15 12 0
-16 0
-17 0
-18 19 20 0
-18 -3 -7 11 0
-13 -9 -15 19 0
-3 -18 -6 0
-1 9 -2 5 0
-8 -3 -4 17 0
3 9 18 17 0
-4 16 15 1 0
4 13 17 -11 0
19 -1 15 17 0
18 3 2 1 0
14 -3 -9 15 0
-14 -3 -2 20 0
1 30 21 22 23 24 25 26 0
27 28 29 30 21 22 23 24 0
24 17 16 -28 -30 5 1 2 0
30 4 25 26 7 -8 -9 10 0
11 22 30 -4 -7 -6 27 28 0
9 17 -19 -13 14 -15 -16 0
17 18 19 20 21 22 23 24 0
15 -16 -17 18 19 20 21 -22 0
10 -19 6 3 7 -8 -9 30 0
21 0
22 0
23 0
24 0
25 0
26 0
27 0
28 0
29 0
30 0
29 30 31 32 33 34 35 0
36 37 38 39 40 0
1 30 31 22 -33 34 25 26 0
27 28 29 30 21 32 23 34 0
34 17 16 -28 -33 5 1 2 0
30 40 25 26 7 -8 -9 10 0
11 22 37 -4 -7 -6 27 28 0
39 17 -19 -13 14 -15 -16 0
37 18 19 20 21 22 23 24 0
15 -16 -37 18 19 20 21 -22 0
10 -19 6 33 7 -8 -9 30 0
1 30 31 22 -33 34 25 16 0
27 28 29 30 21 32 23 14 0
4 17 16 -28 -33 5 1 2 0
30 40 25 26 7 -8 -9 31 0
11 32 37 -4 -7 -6 27 28 0
39 17 -29 -13 14 -35 -16 0
37 18 19 30 21 22 23 34 0
15 -16 -37 18 19 40 21 -22 0
10 -19 6 33 7 -18 -19 30 0
40 39 8 7 1 0
-34 -1 -30 0
-1 -14 -19 -30 0
-1 -36 -31 0
-1 -14 -23 -22 0
-1 -4 -5 -32 0
-1 -4 -27 -39 0
-1 -14 -18 0
31 0
-32 0
33 0
-34 0
35 0
-36 0
-37 0
38 0
-39 0
40 0
